Version identifier: 20.1.0.0 | 2020-11-10 | 9bedb6d68
CPXPARAM_Threads                                 1
CPXPARAM_TimeLimit                               7200
CPXPARAM_MIP_Tolerances_MIPGap                   0
Generic callback                                 0x60
1 of 1 MIP starts provided solutions.
MIP start 'm1' defined initial solution with objective 1116.0952.
Tried aggregator 1 time.
Reduced MIP has 1 rows, 1001 columns, and 1000 nonzeros.
Reduced MIP has 1000 binaries, 0 generals, 0 SOSs, and 0 indicators.
Presolve time = 0.00 sec. (0.30 ticks)
Probing time = 0.00 sec. (0.11 ticks)
Tried aggregator 1 time.
Reduced MIP has 1 rows, 1001 columns, and 1000 nonzeros.
Reduced MIP has 1000 binaries, 0 generals, 0 SOSs, and 0 indicators.
Presolve time = 0.00 sec. (0.31 ticks)
Probing time = 0.00 sec. (0.11 ticks)
MIP emphasis: balance optimality and feasibility.
MIP search method: dynamic search.
Parallel mode: none, using 1 thread.
Root relaxation solution time = 0.00 sec. (0.21 ticks)

        Nodes                                         Cuts/
   Node  Left     Objective  IInf  Best Integer    Best Bound    ItCnt     Gap

*     0+    0                         1116.0952     4368.0000           291.36%
      0     0     1484.6231     2     1116.0952     4368.0000        0  291.36%
      0     0     1378.1854     4     1116.0952 UserPurge2: 1       24   23.48%
      0     0     1235.8237     3     1116.0952 UserPurge2: 1       39   10.73%
      0     0     1216.8295     5     1116.0952 UserPurge2: 1       49    9.03%
      0     0     1195.4957     4     1116.0952 UserPurge2: 1       61    7.11%

Repeating presolve.
Tried aggregator 1 time.
MIP Presolve eliminated 0 rows and 314 columns.
Reduced MIP has 1 rows, 687 columns, and 686 nonzeros.
Reduced MIP has 686 binaries, 0 generals, 0 SOSs, and 0 indicators.
Presolve time = 0.00 sec. (0.27 ticks)
Probing time = 0.00 sec. (0.07 ticks)
Tried aggregator 1 time.
Reduced MIP has 1 rows, 687 columns, and 686 nonzeros.
Reduced MIP has 686 binaries, 0 generals, 0 SOSs, and 0 indicators.
Presolve time = 0.00 sec. (0.21 ticks)
Represolve time = 0.00 sec. (2.09 ticks)
Probing time = 0.00 sec. (0.07 ticks)
MIP emphasis: balance optimality and feasibility.
MIP search method: dynamic search.
Parallel mode: none, using 1 thread.
Root relaxation solution time = 0.00 sec. (1.37 ticks)

        Nodes                                         Cuts/
   Node  Left     Objective  IInf  Best Integer    Best Bound    ItCnt     Gap

*     0+    0                         1116.0952     1195.4957             7.11%
      0     0     1195.4957     4     1116.0952     1195.4957       91    7.11%
      0     0     1182.0545     4     1116.0952 UserPurge2: 1      103    5.91%
*     0+    0                         1116.9373     1182.0545             5.83%
      0     0     1180.8404     5     1116.9373 UserPurge2: 1      107    5.72%
      0     0     1176.9016     6     1116.9373 UserPurge2: 1      125    5.37%
      0     0     1170.1971     5     1116.9373 UserPurge2: 1      142    4.77%
      0     2     1170.1971     5     1116.9373     1170.1905      142    4.77%
Elapsed time = 22.38 sec. (29.97 ticks, tree = 0.01 MB, solutions = 2)
      1     3     1128.9768    15     1116.9373     1169.9019     2951    4.74%
      3     3     1126.8410    13     1116.9373     1128.9749     7632    1.08%
      4     4     1126.8086     8     1116.9373     1128.9749     8315    1.08%
      5     5     1126.5272    10     1116.9373     1128.9749    10297    1.08%
      6     6     1120.6336     2     1116.9373     1128.9749    10494    1.08%
*     8     6      integral     0     1119.8602     1128.9749    10503    0.81%
*    14     4      integral     0     1119.9097     1128.9749    10520    0.81%
     18     4     1121.4060     2     1119.9097     1126.5272    10758    0.59%
*    19     3      integral     0     1121.3906     1126.5272    10759    0.46%
     20     3     1126.3897    11     1121.3906     1126.5263    11379    0.46%
     21     4     1126.2158    15     1121.3906     1126.5263    12144    0.46%
Elapsed time = 901.25 sec. (15533.74 ticks, tree = 0.04 MB, solutions = 5)
     22     5     1126.0313    15     1121.3906     1126.5263    13339    0.46%
     23     6     1125.7209     6     1121.3906     1126.5263    14193    0.46%
     24     7     1125.5660    15     1121.3906     1126.5263    15034    0.46%
     25     8     1125.3612    12     1121.3906     1126.5263    15469    0.46%
     26     9     1125.2147     9     1121.3906     1126.5263    16235    0.46%
     27    10     1125.0712     9     1121.3906     1126.5263    16863    0.46%
     28    11     1124.6881    17     1121.3906     1126.5263    18452    0.46%
     29    12     1124.4879     9     1121.3906     1126.5263    19029    0.46%
     30    13     1123.9353    10     1121.3906     1126.5263    19949    0.46%
     31    14     1123.7175    15     1121.3906     1126.5263    20649    0.46%
Elapsed time = 1953.22 sec. (51440.14 ticks, tree = 0.35 MB, solutions = 5)
     32    15     1123.6766     9     1121.3906     1126.5263    20935    0.46%
     33    16     1123.3764    15     1121.3906     1126.5263    22131    0.46%
     34    17     1123.1794    16     1121.3906     1126.5263    23189    0.46%
     35    18     1123.0980    14     1121.3906     1126.5263    24037    0.46%
     36    19     1123.0694    12     1121.3906     1126.5263    24553    0.46%
     37    20     1123.0277    10     1121.3906     1126.5263    25087    0.46%
     38    21     1123.0022    10     1121.3906     1126.5263    25495    0.46%
     39    22     1122.9868    10     1121.3906     1126.5263    25862    0.46%
     40    23     1122.6648    10     1121.3906     1126.5263    26477    0.46%
     41    24     1122.4544     8     1121.3906     1126.5263    27076    0.46%
Elapsed time = 2868.04 sec. (96287.69 ticks, tree = 0.86 MB, solutions = 5)
     42    25     1122.2594     9     1121.3906     1126.5263    27548    0.46%
     43    26     1122.1028     8     1121.3906     1126.5263    27901    0.46%
     44    27     1122.0263     8     1121.3906     1126.5263    28433    0.46%
     45    28     1121.9471     8     1121.3906     1126.5263    28602    0.46%
     46    29     1121.5704    10     1121.3906     1126.5263    29120    0.46%
     51    24        cutoff           1121.3906     1126.0312    29415    0.41%
     56    19        cutoff           1121.3906     1125.0690    29917    0.33%
     64    11        cutoff           1121.3906     1123.0978    30581    0.15%
     74     1        cutoff           1121.3906     1121.9469    31173    0.05%

User cuts applied:  8481

Root node processing (before b&c):
  Real time             =   22.40 sec. (46.70 ticks)
Sequential b&c:
  Real time             = 3312.39 sec. (116880.73 ticks)
                          ------------
Total (root+branch&cut) = 3334.79 sec. (116927.42 ticks)
@Parameters: 
is_S_cut                                true
is_add_all_yinF                         true
is_start_value                          true
is_usercut                              true
is_visualization                        false
uc_only_rootnode                        false

data                                    Qi
fn                                      data/Qi/instance_800_1000.csv
mode                                    NewSubmodular
solver                                  cplex

p                                       2
r                                       10

EPS                                     1.0e-06
EPS_vio                                 1.0e-04
beta                                    0.10
gap                                     0.00
nodelimit                               Inf
timelimit                               7200.00


@PrintInfos
ItCnt: 31190
Current gap: 0.00 %
Termination Status: OPTIMAL
Primal Status: FEASIBLE_POINT
Solve Time: 3334.79 sec
Objective Value: 1121.390616
Number of Nodes:     76

CutInfo: [phase] num / time (sec) 
ZLP             [phase1]     0 / 0.00 [rLC]     0 / 0.00 [rUC]     0 / 0.00 [sLC]     0 / 0.00 [sUC]     0 / 0.00 
OldSubmodular   [phase1]     0 / 0.00 [rLC]     0 / 0.00 [rUC]     0 / 0.00 [sLC]     0 / 0.00 [sUC]     0 / 0.00 
NewSubmodular   [phase1]     0 / 0.00 [rLC]    29 / 17.72 [rUC]    24 / 2.67 [sLC]     2 / 11.72 [sUC]  8627 / 3197.18 
PMP             [phase1]     0 / 0.00 [rLC]     6 / 14.18 [rUC]     0 / 0.00 [sLC]     5 / 11.47 [sUC]    73 / 426.89 
Separation Round: [phase1] 0  [rLC] 19  [rUC] 10  [sLC] 5  [sUC] 1812
Root Best Bound 1128.976043
Root Best Integer: 1116.937270
Best Bound: 1121.390616
Best Integer: 1121.390616

